150
[30,31,32,33,34,35,36,37,38,39,40,41,42,43,44,45,46,47,48,49,50,51,52,53,54,55,56,57,58,59,60,61,62,63,64,65,66,67,68,69,70,71,72,73,74,75,76,77,78,79,80,81,82,83,84,85,86,87,88,89,90,91,92,93,94,95,96,97,98,99,100,101,102,103,104,105]
[6,4,6,9,6,6,4,6,11,4,9,6,8,6,11,6,2,6,3,2,3,5,5,5,7,4,1,3,2,5,3,6,5,6,6,4,6,5,6,5,6,6,4,7,6,5,9,4,4,1,7,7,6,3,4,7,4,7,7,4,9,6,7,6,6,2,3,8,6,1,4,7,1,4,2,7]
